51 51
0 1 1
1 50 99
50 49 4
49 48 6
48 47 3
47 46 4
46 45 5
45 44 6
44 43 8
43 42 6
42 41 8
41 40 9
40 39 9
39 38 7
38 37 9
37 36 9
36 35 8
35 34 6
34 33 8
33 32 6
32 31 5
31 30 4
30 29 4
29 28 4
28 27 4
27 26 4
26 25 3
25 24 3
24 23 0
23 22 3
22 21 4
21 20 6
20 19 6
19 18 5
18 17 4
17 16 6
16 15 8
15 14 7
14 13 8
13 12 8
12 11 6
11 10 4
10 9 5
9 8 4
8 7 6
7 6 3
6 5 1
5 4 4
4 3 3
3 2 4
2 0 4
